# Solution for model GasLib-40
# Objective value = 1.4469182103714150e+01
loadshed[innode_1] 0
loadshed[innode_2] 0
loadshed[innode_3] 0
loadshed[innode_4] 0
loadshed[innode_5] 0
loadshed[innode_6] 0
loadshed[innode_7] 0
loadshed[innode_8] 0
loadshed[source_1] -2.0393288518330133e-01
loadshed[source_2] -3.4617188968325996e-02
loadshed[source_3] 3.3007488078159364e-01
loadshed[sink_1] 0
loadshed[sink_2] 0
loadshed[sink_3] 0
loadshed[sink_4] 0
loadshed[sink_5] 0
loadshed[sink_6] 0
loadshed[sink_7] 0
loadshed[sink_8] 0
loadshed[sink_9] 0
loadshed[sink_10] 0
loadshed[sink_11] 0
loadshed[sink_12] 8.8473979742455944e-01
loadshed[sink_13] 0
loadshed[sink_14] 0
loadshed[sink_15] 0
loadshed[sink_16] 0
loadshed[sink_17] 0
loadshed[sink_18] 0
loadshed[sink_19] 0
loadshed[sink_20] 0
loadshed[sink_21] 0
loadshed[sink_22] 0
loadshed[sink_23] 0
loadshed[sink_24] 0
loadshed[sink_25] 0
loadshed[sink_26] 0
loadshed[sink_27] 0
loadshed[sink_28] 0
loadshed[sink_29] 0
flow[source_1,sink_3] 1.9033008424442954e+02
flow[innode_1,sink_16] 1.6354166666666970e+01
flow[innode_6,sink_13] 8.5705184791315077e+00
flow[sink_13,sink_14] -7.78364818753516
flow[sink_14,sink_10] -2.4137814854201828e+01
flow[sink_25,sink_26] 1.8196429576757330e+02
flow[sink_26,sink_9] 1.6542665122962478e+02
flow[sink_9,sink_18] 1.4907248456295812e+02
flow[sink_26,sink_4] 1.8347787128192294e-01
flow[sink_4,sink_20] -1.6170688795384649e+01
flow[sink_18,sink_6] 1.3271831789629147e+02
flow[sink_25,innode_8] -1.5762175091109319e+02
flow[sink_6,sink_7] 8.3655817896291410e+01
flow[sink_6,sink_22] 3.2708333333333641e+01
flow[sink_7,sink_24] 3.4593317896285853e+01
flow[sink_22,sink_1] 1.6354166666666970e+01
flow[sink_24,sink_21] 1.8239151229619186e+01
flow[sink_21,sink_12] 1.8849845629525177e+00
flow[sink_7,sink_5] 3.2708333333338757e+01
flow[sink_5,sink_17] 1.6354166666672086e+01
flow[sink_17,sink_4] 0
flow[sink_17,sink_8] 0
flow[sink_3,sink_23] 16.3541666666697
flow[sink_8,sink_20] -1.6354166666668334e+01
flow[sink_25,sink_20] 48.8790221287195
flow[sink_25,sink_15] -9.8146252130998519e+01
flow[sink_15,sink_29] -6.3712804613537571e+01
flow[sink_29,sink_28] 1.6354166666667879e+01
flow[sink_29,sink_2] 6.7141780850794277e+01
flow[sink_2,sink_15] 5.0787614184127605e+01
flow[sink_29,innode_7] -1.6356291879766624e+02
flow[innode_4,sink_19] 8.9554481520869047e+01
flow[sink_19,innode_3] 3.5721444670489120e+01
flow[innode_4,innode_5] 1.6354166666679703e+01
flow[sink_27,innode_5] -1.6354166666679703e+01
flow[sink_27,sink_19] 0
flow[sink_10,sink_11] 3.2708333333333641e+01
flow[sink_10,innode_2] -3.7478870183713013e+01
flow[sink_10,innode_3] -3.5721444670489120e+01
flow[innode_6,sink_25] -8.5705184791315077e+00
flow[sink_11,innode_1] 1.6354166666666970e+01
flow[sink_19,innode_2] 3.7478870183713013e+01
flow[source_3,innode_4] 1.0590864818754875e+02
flow[source_2,innode_7] 1.6356291879766624e+02
flow[sink_3,innode_8] 1.5762175091109319e+02
pressure[innode_1] 7.5252555377853881e+01
pressure[innode_2] 7.7385169767470131e+01
pressure[innode_3] 7.7306068673262118e+01
pressure[innode_4] 81.01325
pressure[innode_5] 8.1002000741808772e+01
pressure[innode_6] 7.4295890270526726e+01
pressure[innode_7] 81.01325
pressure[innode_8] 8.0377049237098447e+01
pressure[source_1] 81.01325
pressure[source_2] 81.01325
pressure[source_3] 81.01325
pressure[sink_1] 4.0540101094308795e+01
pressure[sink_2] 7.4937805596114416e+01
pressure[sink_3] 8.0377049237098447e+01
pressure[sink_4] 6.1456923929904626e+01
pressure[sink_5] 2.7889643676478592e+01
pressure[sink_6] 4.2641178704696166e+01
pressure[sink_7] 41.4927837302697
pressure[sink_8] 61.503625425945
pressure[sink_9] 5.1579039750794408e+01
pressure[sink_10] 7.5404256685457426e+01
pressure[sink_11] 7.5252555377853881e+01
pressure[sink_12] 1.01325
pressure[sink_13] 7.4248642434417960e+01
pressure[sink_14] 7.4262571935869772e+01
pressure[sink_15] 7.4771995229213118e+01
pressure[sink_16] 74.2309055430362
pressure[sink_17] 2.6671376471123480e+01
pressure[sink_18] 46.1851529468894
pressure[sink_19] 7.7385169767470131e+01
pressure[sink_20] 6.2643280849533291e+01
pressure[sink_21] 1.6840306731054886e+00
pressure[sink_22] 41.6038702366638
pressure[sink_23] 8.0212331225438660e+01
pressure[sink_24] 1.8860123267809863e+00
pressure[sink_25] 7.4295890270526726e+01
pressure[sink_26] 6.1480251781321343e+01
pressure[sink_27] 8.0866291377726043e+01
pressure[sink_28] 7.6343300405543474e+01
pressure[sink_29] 7.6638582679160649e+01
interdiction[source_1,sink_3] 0
interdiction[innode_1,sink_16] 0
interdiction[innode_6,sink_13] 0
interdiction[sink_13,sink_14] 0
interdiction[sink_14,sink_10] 0
interdiction[sink_25,sink_26] 0
interdiction[sink_26,sink_9] 0
interdiction[sink_9,sink_18] 0
interdiction[sink_26,sink_4] 0
interdiction[sink_4,sink_20] 0
interdiction[sink_18,sink_6] 0
interdiction[sink_25,innode_8] 0
interdiction[sink_6,sink_7] 0
interdiction[sink_6,sink_22] 0
interdiction[sink_7,sink_24] 0
interdiction[sink_22,sink_1] 0
interdiction[sink_24,sink_21] 0
interdiction[sink_21,sink_12] 0
interdiction[sink_7,sink_5] 0
interdiction[sink_5,sink_17] 0
interdiction[sink_17,sink_4] 1
interdiction[sink_17,sink_8] 1
interdiction[sink_3,sink_23] 0
interdiction[sink_8,sink_20] 0
interdiction[sink_25,sink_20] 0
interdiction[sink_25,sink_15] 0
interdiction[sink_15,sink_29] 0
interdiction[sink_29,sink_28] 0
interdiction[sink_29,sink_2] 0
interdiction[sink_2,sink_15] 0
interdiction[sink_29,innode_7] 0
interdiction[innode_4,sink_19] 0
interdiction[sink_19,innode_3] 0
interdiction[innode_4,innode_5] 0
interdiction[sink_27,innode_5] 0
interdiction[sink_27,sink_19] 1
interdiction[sink_10,sink_11] 0
interdiction[sink_10,innode_2] 0
interdiction[sink_10,innode_3] 0
interdiction[innode_6,sink_25] 0
interdiction[sink_11,innode_1] 0
interdiction[sink_19,innode_2] 0
interdiction[source_3,innode_4] 0
interdiction[source_2,innode_7] 0
interdiction[sink_3,innode_8] 0
WCcheckFlow[source_1,sink_3] 39
WCcheckFlow[innode_1,sink_16] 1
WCcheckFlow[innode_6,sink_13] 13
WCcheckFlow[sink_13,sink_14] 12
WCcheckFlow[sink_14,sink_10] 11
WCcheckFlow[sink_25,sink_26] 15
WCcheckFlow[sink_26,sink_9] 11
WCcheckFlow[sink_9,sink_18] 10
WCcheckFlow[sink_26,sink_4] 3
WCcheckFlow[sink_4,sink_20] 2
WCcheckFlow[sink_18,sink_6] 9
WCcheckFlow[sink_25,innode_8] -36
WCcheckFlow[sink_6,sink_7] 6
WCcheckFlow[sink_6,sink_22] 2
WCcheckFlow[sink_7,sink_24] 3
WCcheckFlow[sink_22,sink_1] 1
WCcheckFlow[sink_24,sink_21] 2
WCcheckFlow[sink_21,sink_12] 1
WCcheckFlow[sink_7,sink_5] 2
WCcheckFlow[sink_5,sink_17] 1
WCcheckFlow[sink_17,sink_4] 0
WCcheckFlow[sink_17,sink_8] 0
WCcheckFlow[sink_3,sink_23] 1
WCcheckFlow[sink_8,sink_20] -1
WCcheckFlow[sink_25,sink_20] 0
WCcheckFlow[sink_25,sink_15] 6
WCcheckFlow[sink_15,sink_29] 5
WCcheckFlow[sink_29,sink_28] 1
WCcheckFlow[sink_29,sink_2] 1
WCcheckFlow[sink_2,sink_15] 0
WCcheckFlow[sink_29,innode_7] 2
WCcheckFlow[innode_4,sink_19] -4
WCcheckFlow[sink_19,innode_3] -5
WCcheckFlow[innode_4,innode_5] 2
WCcheckFlow[sink_27,innode_5] -1
WCcheckFlow[sink_27,sink_19] 0
WCcheckFlow[sink_10,sink_11] 3
WCcheckFlow[sink_10,innode_2] 1
WCcheckFlow[sink_10,innode_3] 6
WCcheckFlow[innode_6,sink_25] -14
WCcheckFlow[sink_11,innode_1] 2
WCcheckFlow[sink_19,innode_2] 0
WCcheckFlow[source_3,innode_4] -1
WCcheckFlow[source_2,innode_7] -1
WCcheckFlow[sink_3,innode_8] 37
